Version identifier: 20.1.0.0 | 2020-11-10 | 9bedb6d68
Tried aggregator 2 times.
MIP Presolve eliminated 2518 rows and 1373 columns.
MIP Presolve modified 6270 coefficients.
Aggregator did 238 substitutions.
Reduced MIP has 3653 rows, 2804 columns, and 11988 nonzeros.
Reduced MIP has 470 binaries, 2334 generals, 0 SOSs, and 0 indicators.
Presolve time = 0.03 sec. (14.35 ticks)
Probing fixed 80 vars, tightened 659 bounds.
Probing time = 0.01 sec. (1.41 ticks)
Tried aggregator 1 time.
Detecting symmetries...
MIP Presolve eliminated 1560 rows and 80 columns.
MIP Presolve modified 157 coefficients.
Reduced MIP has 2093 rows, 2724 columns, and 6828 nonzeros.
Reduced MIP has 686 binaries, 2038 generals, 0 SOSs, and 0 indicators.
Presolve time = 0.02 sec. (8.02 ticks)
Probing time = 0.00 sec. (0.51 ticks)
Clique table members: 5.
MIP emphasis: balance optimality and feasibility.
MIP search method: dynamic search.
Parallel mode: deterministic, using up to 24 threads.
Root relaxation solution time = 0.03 sec. (6.03 ticks)

        Nodes                                         Cuts/
   Node  Left     Objective  IInf  Best Integer    Best Bound    ItCnt     Gap

      0     0        0.0000    84                      0.0000      571         
*     0+    0                            9.0000        0.0000           100.00%
      0     0        0.0000    96        9.0000     Cuts: 182      733  100.00%
      0     0        0.0054   733        9.0000     Cuts: 105     1638   99.94%
*     0+    0                            7.0000        0.0054            99.92%
      0     0        cutoff              7.0000        7.0000     1964    0.00%
Elapsed time = 1.32 sec. (226.69 ticks, tree = 0.01 MB, solutions = 2)

Cover cuts applied:  2
Implied bound cuts applied:  79
Flow cuts applied:  44
Mixed integer rounding cuts applied:  35
Zero-half cuts applied:  151
Lift and project cuts applied:  5
Gomory fractional cuts applied:  12

Root node processing (before b&c):
  Real time             =    1.32 sec. (226.89 ticks)
Parallel b&c, 24 threads:
  Real time             =    0.00 sec. (0.00 ticks)
  Sync time (average)   =    0.00 sec.
  Wait time (average)   =    0.00 sec.
                          ------------
Total (root+branch&cut) =    1.32 sec. (226.89 ticks)

Solution status = Optimal
Solution LB = 7
Solution UB = 7
Runtime = 1.38686 seconds
	Command being timed: "/home/min/git_repos/CS598MEBProject/CNT-ILP/build/cnt -s 2 ./output/k8_n40/simC_c1_k8_n40_u1_s3_del02.input-left.cnp"
	User time (seconds): 18.58
	System time (seconds): 0.17
	Percent of CPU this job got: 1318%
	Elapsed (wall clock) time (h:mm:ss or m:ss): 0:01.42
	Average shared text size (kbytes): 0
	Average unshared data size (kbytes): 0
	Average stack size (kbytes): 0
	Average total size (kbytes): 0
	Maximum resident set size (kbytes): 144724
	Average resident set size (kbytes): 0
	Major (requiring I/O) page faults: 1
	Minor (reclaiming a frame) page faults: 45029
	Voluntary context switches: 6726
	Involuntary context switches: 2313
	Swaps: 0
	File system inputs: 48
	File system outputs: 24
	Socket messages sent: 0
	Socket messages received: 0
	Signals delivered: 0
	Page size (bytes): 4096
	Exit status: 0
